============================[ Problem Statistics ]=============================|                                                                             ||  Number of variables:          4242                                         ||  Number of clauses:            9939                                         ||  Parse time:                   0.34 s                                       ||                                                                             |============================[ Search Statistics ]==============================| Conflicts |          ORIGINAL         |          LEARNT          | Progress ||           |    Vars  Clauses Literals |    Limit  Clauses Lit/Cl |          |===============================================================================|       100 |    1591     6144   522505 |     2252      100     53 | 62.501 % |===============================================================================restarts              : 2conflicts             : 193            (375 /sec)decisions             : 362            (0.00 % random) (704 /sec)propagations          : 10050          (19553 /sec)conflict literals     : 13469          (95.18 % deleted)CPU time              : 0.514 sSATISFIABLE